(set-logic QF_LRA)
(declare-fun T1 () Real )
(declare-fun T2 () Real )
(declare-fun T3 () Real )
(declare-fun T4 () Real )
(declare-fun T5 () Real )
(declare-fun T6 () Real )
(declare-fun Z () Real )
(assert ( and 
(or ( <= ( + T1 39 ) T2 ) ( <= ( + T2 99 ) T1 ) )
(or ( <= ( + T1 131 )  ( + T2 99 ) ) ( <= ( + T2 127 )( + T1 39 ) ) )
(or ( <= ( + T1 177 )  ( + T2 127 ) ) ( <= ( + T2 182 )( + T1 131 ) ) )
(or ( <= ( + T1 206 )  ( + T2 182 ) ) ( <= ( + T2 246 )( + T1 177 ) ) )
(or ( <= ( + T1 39 ) T3 ) ( <= ( + T3 21 ) T1 ) )
(or ( <= ( + T1 131 )  ( + T3 21 ) ) ( <= ( + T3 112 )( + T1 39 ) ) )
(or ( <= ( + T1 177 )  ( + T3 112 ) ) ( <= ( + T3 164 )( + T1 131 ) ) )
(or ( <= ( + T1 206 )  ( + T3 164 ) ) ( <= ( + T3 177 )( + T1 177 ) ) )
(or ( <= ( + T1 39 ) T4 ) ( <= ( + T4 79 ) T1 ) )
(or ( <= ( + T1 131 )  ( + T4 79 ) ) ( <= ( + T4 93 )( + T1 39 ) ) )
(or ( <= ( + T1 177 )  ( + T4 93 ) ) ( <= ( + T4 161 )( + T1 131 ) ) )
(or ( <= ( + T1 206 )  ( + T4 161 ) ) ( <= ( + T4 224 )( + T1 177 ) ) )
(or ( <= ( + T1 39 ) T5 ) ( <= ( + T5 52 ) T1 ) )
(or ( <= ( + T1 131 )  ( + T5 52 ) ) ( <= ( + T5 140 )( + T1 39 ) ) )
(or ( <= ( + T1 177 )  ( + T5 140 ) ) ( <= ( + T5 151 )( + T1 131 ) ) )
(or ( <= ( + T1 206 )  ( + T5 151 ) ) ( <= ( + T5 166 )( + T1 177 ) ) )
(or ( <= ( + T1 39 ) T6 ) ( <= ( + T6 37 ) T1 ) )
(or ( <= ( + T1 131 )  ( + T6 37 ) ) ( <= ( + T6 40 )( + T1 39 ) ) )
(or ( <= ( + T1 177 )  ( + T6 40 ) ) ( <= ( + T6 111 )( + T1 131 ) ) )
(or ( <= ( + T1 206 )  ( + T6 111 ) ) ( <= ( + T6 209 )( + T1 177 ) ) )
(or ( <= ( + T2 99 ) T3 ) ( <= ( + T3 21 ) T2 ) )
(or ( <= ( + T2 127 )  ( + T3 21 ) ) ( <= ( + T3 112 )( + T2 99 ) ) )
(or ( <= ( + T2 182 )  ( + T3 112 ) ) ( <= ( + T3 164 )( + T2 127 ) ) )
(or ( <= ( + T2 246 )  ( + T3 164 ) ) ( <= ( + T3 177 )( + T2 182 ) ) )
(or ( <= ( + T2 99 ) T4 ) ( <= ( + T4 79 ) T2 ) )
(or ( <= ( + T2 127 )  ( + T4 79 ) ) ( <= ( + T4 93 )( + T2 99 ) ) )
(or ( <= ( + T2 182 )  ( + T4 93 ) ) ( <= ( + T4 161 )( + T2 127 ) ) )
(or ( <= ( + T2 246 )  ( + T4 161 ) ) ( <= ( + T4 224 )( + T2 182 ) ) )
(or ( <= ( + T2 99 ) T5 ) ( <= ( + T5 52 ) T2 ) )
(or ( <= ( + T2 127 )  ( + T5 52 ) ) ( <= ( + T5 140 )( + T2 99 ) ) )
(or ( <= ( + T2 182 )  ( + T5 140 ) ) ( <= ( + T5 151 )( + T2 127 ) ) )
(or ( <= ( + T2 246 )  ( + T5 151 ) ) ( <= ( + T5 166 )( + T2 182 ) ) )
(or ( <= ( + T2 99 ) T6 ) ( <= ( + T6 37 ) T2 ) )
(or ( <= ( + T2 127 )  ( + T6 37 ) ) ( <= ( + T6 40 )( + T2 99 ) ) )
(or ( <= ( + T2 182 )  ( + T6 40 ) ) ( <= ( + T6 111 )( + T2 127 ) ) )
(or ( <= ( + T2 246 )  ( + T6 111 ) ) ( <= ( + T6 209 )( + T2 182 ) ) )
(or ( <= ( + T3 21 ) T4 ) ( <= ( + T4 79 ) T3 ) )
(or ( <= ( + T3 112 )  ( + T4 79 ) ) ( <= ( + T4 93 )( + T3 21 ) ) )
(or ( <= ( + T3 164 )  ( + T4 93 ) ) ( <= ( + T4 161 )( + T3 112 ) ) )
(or ( <= ( + T3 177 )  ( + T4 161 ) ) ( <= ( + T4 224 )( + T3 164 ) ) )
(or ( <= ( + T3 21 ) T5 ) ( <= ( + T5 52 ) T3 ) )
(or ( <= ( + T3 112 )  ( + T5 52 ) ) ( <= ( + T5 140 )( + T3 21 ) ) )
(or ( <= ( + T3 164 )  ( + T5 140 ) ) ( <= ( + T5 151 )( + T3 112 ) ) )
(or ( <= ( + T3 177 )  ( + T5 151 ) ) ( <= ( + T5 166 )( + T3 164 ) ) )
(or ( <= ( + T3 21 ) T6 ) ( <= ( + T6 37 ) T3 ) )
(or ( <= ( + T3 112 )  ( + T6 37 ) ) ( <= ( + T6 40 )( + T3 21 ) ) )
(or ( <= ( + T3 164 )  ( + T6 40 ) ) ( <= ( + T6 111 )( + T3 112 ) ) )
(or ( <= ( + T3 177 )  ( + T6 111 ) ) ( <= ( + T6 209 )( + T3 164 ) ) )
(or ( <= ( + T4 79 ) T5 ) ( <= ( + T5 52 ) T4 ) )
(or ( <= ( + T4 93 )  ( + T5 52 ) ) ( <= ( + T5 140 )( + T4 79 ) ) )
(or ( <= ( + T4 161 )  ( + T5 140 ) ) ( <= ( + T5 151 )( + T4 93 ) ) )
(or ( <= ( + T4 224 )  ( + T5 151 ) ) ( <= ( + T5 166 )( + T4 161 ) ) )
(or ( <= ( + T4 79 ) T6 ) ( <= ( + T6 37 ) T4 ) )
(or ( <= ( + T4 93 )  ( + T6 37 ) ) ( <= ( + T6 40 )( + T4 79 ) ) )
(or ( <= ( + T4 161 )  ( + T6 40 ) ) ( <= ( + T6 111 )( + T4 93 ) ) )
(or ( <= ( + T4 224 )  ( + T6 111 ) ) ( <= ( + T6 209 )( + T4 161 ) ) )
(or ( <= ( + T5 52 ) T6 ) ( <= ( + T6 37 ) T5 ) )
(or ( <= ( + T5 140 )  ( + T6 37 ) ) ( <= ( + T6 40 )( + T5 52 ) ) )
(or ( <= ( + T5 151 )  ( + T6 40 ) ) ( <= ( + T6 111 )( + T5 140 ) ) )
(or ( <= ( + T5 166 )  ( + T6 111 ) ) ( <= ( + T6 209 )( + T5 151 ) ) )
( <= ( + T1 206 ) Z)
( <= ( + T2 246 ) Z)
( <= ( + T3 177 ) Z)
( <= ( + T4 224 ) Z)
( <= ( + T5 166 ) Z)
( <= ( + T6 209 ) Z)
( >= T1 0 )
( >= T2 0 )
( >= T3 0 )
( >= T4 0 )
( >= T5 0 )
( >= T6 0 )
) )
(minimize Z)
(check-sat)